#variables

#???
variable ind 		equal 82

#Define Pi and probably a normalization constant??
variable M_PI equal 3.1415926535
variable e              equal (4*${M_PI}*55.26349406*25.2*2.16*0.001)^(-1/2)

#Reduced temperature, the depth of the LJ potential well, the time step for integration, charge (+Z, -Z in our case), Idk what Ts is. reduced number density (rho times sigma^3) 
#So we already set up key physical parameters. 

variable t              equal 1.0       # 1.0 corresponds to T = 293K, kBT = 25,2 meV
variable e_lj           equal 40.0*$t
variable dt             equal 0.0005
variable Z              equal 1
variable Ts		           equal 0.5
variable rhos           equal 0.05

#Number of ions per group
variable N_ion         equal 200

#diameter of the ions (sigma) and the cut_off length for the WCA potential
variable sigma_ii           equal 1.0
variable c_ii           equal 2^(1/6)*${sigma_ii}

#ion mass
variable m_i            equal 1.0     # 0.36 nm

#other variables: bjerrum length and the dielectic constant
variable l_bjerrum      equal ${sigma_ii}/${Ts}
variable epsilon        equal ${Ts}/(${sigma_ii}*${t})

#Box size
variable L_box          equal 10*${sigma_ii}

#Coulomb interaction cutoff
variable c_coul         equal 2.5


variable seed1		equal (837603)


# Units, atom style, boundary conditions, dielectric constant

units           lj

atom_style 	full

boundary        p p p

dielectric      ${epsilon}

#PARTICLE CREATION 

region box      block 0 ${L_box} 0 ${L_box} 0.0 ${L_box}
create_box      2 box

mass *          ${m_i}


create_atoms 1 random ${N_ion} 4248389 NULL
create_atoms 2 random ${N_ion} 6238894 NULL

set type 1 charge $(v_Z)
set type 2 charge -$(v_Z)

group cation type 1
group anion type 2

reset_timestep  0

# WCA and coulomb potential

pair_style	lj/cut/coul/long ${c_coul}
pair_coeff	* * ${e_lj} ${sigma_ii} ${c_ii}

#WCA approx
pair_modify shift yes

#Long range of Coulomb potential
kspace_style pppm 1.0e-4

#Give all particles random initial velocity
velocity all create 1.0 ${seed1}

# neighbor

neighbor        0.3 bin
neigh_modify    every 1 delay 1 check yes one 500 page 5000

# minimize
minimize 1.0e-6 1.0e-8 500 5000


reset_timestep  0

# fixes, sets up NVT ensemble. 
fix             mynvt all nvt temp 1.0 1.0 $(100*dt) tchain 30

timestep	${dt}

#computes
compute pe all pe/atom

#thermodynamic quantities, outputs every 1000 steps
thermo		1000
thermo_style	custom step temp etotal pe ke press atoms

# dump pictures and movies

dump		1 all custom 1000 configuration_T${Ts}_rho${rhos}.dump id type x y z vx vy vz fx fy fz c_pe
dump_modify 1 format line "%d %d %.6f %.6f %.6f %.6f %.6f %.6f %.6f %.6f %.6f %.6f"
dump_modify 1 sort id



run 10000

write_restart restart_T${Ts}_rho${rhos}.restart
