
# System: Electrolyte with T* = 0.5, matching physical Bjerrum length/ion diameter ratio

#Define Pi and normalization constant
variable M_PI          equal 3.1415926535
variable e             equal (4*${M_PI}*55.26349406*25.2*2.16*0.001)^(-1/2)

# Physical parameters
# T* = sigma/l_bjerrum is approx 0.5 (matches water with l_bjerrum = 0.72 nm, sigma ≈ 0.3 #nm)
variable t             equal 1.0       # 1.0 corresponds to T = 293K, kBT = 25,2 meV, physcial temperature of the system
variable e_lj          equal 20*$t      #was 40, the variable that dictates the well of the LJ potential, the strength of the WCA
variable dt            equal 0.0005
variable Z             equal 1
variable Ts            equal 0.5       # Reduced temperature T*
variable rhos          equal 0.4      # Reduced density 

# RDF specific variables
variable r_max        equal 5.0     
variable bins_ps      equal 32      
variable bins         equal ${r_max}*${bins_ps} 

#Number of ions per group
variable N_ion        equal 200

#diameter of the ions (sigma) and the cut_off length for the WCA potential (minimum of #LJ)
variable sigma_ii      equal 1.0       # Ion diameter in reduced units
variable c_ii          equal 2^(1/6)*${sigma_ii}

#ion mass
variable m_i           equal 1.0     # 0.36 nm

#other variables: bjerrum length and the dielectric constant
variable l_bjerrum     equal ${sigma_ii}/${Ts}
variable epsilon       equal ${Ts}/(${sigma_ii}*${t})

#Box size
variable L_box         equal (2*${N_ion}/${rhos})^(1/3)*${sigma_ii}

#Coulomb interaction cutoff
variable c_coul        equal 5

# Units, atom style, boundary conditions, dielectric constant
units                 lj
atom_style            full
boundary              p p p
dielectric            ${epsilon}

#PARTICLE CREATION 
region box            block 0 ${L_box} 0 ${L_box} 0.0 ${L_box}
create_box            2 box
mass *                ${m_i}

create_atoms          1 random ${N_ion} 4248389 NULL
create_atoms          2 random ${N_ion} 6238894 NULL

set type 1 charge $(v_Z)
set type 2 charge -$(v_Z)

group cation type 1
group anion type 2

reset_timestep 0

# WCA and coulomb potential
pair_style            lj/cut/coul/long ${c_coul}
pair_coeff            * * ${e_lj} ${sigma_ii} ${c_ii}

#WCA approx
pair_modify shift yes

#Long range of Coulomb potential
kspace_style pppm 1.0e-4

# Random seed
variable seed1         equal 837603

#Give all particles random initial velocity
velocity all create 1.0 ${seed1}

# neighbor
neighbor              0.3 bin
neigh_modify          every 1 delay 1 check yes one 500 page 5000

# minimize
minimize 1.0e-6 1.0e-8 500 5000

reset_timestep 0

# fixes, sets up NVT ensemble
fix mynvt all nvt temp 1.0 1.0 $(100*dt) tchain 3

timestep              ${dt}

# Compute RDF
compute rdf all rdf ${bins} 1 1 1 2 2 2 # check g(++), g(--), g(+-)
fix rdf_avg all ave/time 10 100 1000 c_rdf[*] file rdf.avg mode vector

# Computes
compute peratom all pe/atom
compute keatom all ke/atom
# Calculate total PE and KE directly
compute pe all reduce sum c_peratom
compute ke all reduce sum c_keatom
compute temp all temp
compute press all pressure thermo_temp

# Create a variable for total energy
variable etot equal c_pe+c_ke

# Average values over the last 500 timesteps
fix avg_all all ave/time 1 500 500 c_temp c_press v_etot file avg_all.txt mode scalar


# Ensure proper MPI communication and output
comm_modify mode single

# Thermodynamic quantities
thermo               500
thermo_style         custom step temp press c_pe c_ke v_etot
# Modified thermo settings to ensure clean output
thermo_modify        norm yes lost warn flush yes &
                    format float %14.8f format 3 %14.4f &
                    format 4 %14.8f format 5 %14.8f &
                    line one

# Make sure dump is also properly synchronized
dump                 1 all custom 250 configuration_T${Ts}_rho${rhos}.dump id type x y z vx vy vz fx fy fz c_peratom
dump_modify          1 format line "%d %d %.6f %.6f %.6f %.6f %.6f %.6f %.6f %.6f %.6f %.6f"
dump_modify          1 sort id flush yes

# Run with proper setup for parallel execution
fix                 mynvt all nvt temp 1.0 1.0 $(100*dt) tchain 30

# Make sure minimization is complete before running
run                 0


run                 10000

write_restart       restart_T${Ts}_rho${rhos}.restart
